748.14 0
0 74 69 36 37 5 13 35 7 10 31 55 18 49 0
0 63 42 56 23 24 16 6 2 30 68 0
0 65 38 12 26 27 15 20 70 60 71 43 1 0
0 40 72 58 39 9 25 50 32 0
0 14 66 59 19 54 57 29 45 0
0 17 51 62 28 61 21 47 48 0
0 67 46 8 52 34 4 75 0
0 3 44 53 11 33 41 64 22 73 0